17	4	3
15	15	14	14	38	37	34	
0	0	0	0	0	2	5	5	4	4	1	3	2	3	4
6	7	9	7	0	4	6	3	2	3	4	3	14	16	17
10	6	8	9	0	3	5	6	3	6	4	2	6	7
10	6	2	6	8	7	3	4	8	3	9	3	5	8	17
3	0	6	1	6	1	7	7	10	1	10	3	9	11	12
250	9	3	9	0	7	3	4	1	7	8	1	13
200	0	0	3	0	2	10	4	4	2	6	2	10	17
25	8	10	0	8	8	4	1	4	7	6	1	16
100	10	4	3	0	8	3	9	1	10	1	2	15	17
225	0	3	3	0	10	1	8	6	10	8	1	17
125	4	10	0	5	6	6	10	9	7	6	2	17	17
100	2	7	0	4	6	8	6	9	2	7	1	17
8	7	8	0	9	5	9	1	5	2	7	1	17
10	0	1	0	1	10	9	9	8	10	9	1	17
9	9	0	4	0	8	9	9	6	5	8	1	16
10	10	2	10	5	3	10	4	3	9	10	1	17
0	0	0	0	0	9	5	8	5	3	9	0
